19 1 19 8 21 8 19 8 14 1 18 1 19 1 19 8 21 8 19 8 14 1 18 1 19 1 
14 8 16 8 14 8 9 1 14 8 16 8 14 8 11 1 14 8 16 8 14 8 9 1 14 8 16 8 14 8 7 1
19 8 21 8 19 8 16 1 19 8 21 8 19 8 18 1 16 8 18 8 16 8 14 1 19 1 
19 1 19 8 21 8 19 8 14 1 18 1 19 1 19 8 21 8 19 8 14 1 18 1 19 1 
14 8 16 8 14 8 9 1 14 8 16 8 14 8 11 1 14 8 16 8 14 8 9 1 14 8 16 8 14 8 7 1
14 8 16 8 14 8 9 1 14 8 16 8 14 8 6 1 14 8 16 8 14 8 7 1 25 1 
25 1 11 8 12 8 12 8 4 1 16 1 25 1 16 1 
25 1 11 8 12 8 12 8 4 1 16 1 25 1 16 1 
23 8 24 8 23 8 16 1 23 8 24 8 23 8 16 1 21 8 23 8 21 8 19 1 
7 1 16 1 25 1 16 1 25 1 16 1 25 1 21 1 21 1 9 1 
14 1 25 1 9 1 25 1 2 1 2 1 4 1 5 1
19 1 19 8 21 8 19 8 14 1 18 1 19 1 19 8 21 8 19 8 14 1 18 1 19 1 
14 8 16 8 14 8 9 1 14 8 16 8 14 8 11 1 14 8 16 8 14 8 9 1 14 8 16 8 14 8 7 1
19 8 21 8 19 8 16 1 19 8 21 8 19 8 18 1 16 8 18 8 16 8 14 1 19 1 
19 1 19 8 21 8 19 8 14 1 18 1 19 1 19 8 21 8 19 8 14 1 18 1 19 1 
14 8 16 8 14 8 9 1 14 8 16 8 14 8 11 1 14 8 16 8 14 8 9 1 14 8 16 8 14 8 7 1
14 8 16 8 14 8 9 1 14 8 16 8 14 8 6 1 14 8 16 8 14 8 7 1 25 1 
25 1 11 8 12 8 12 8 4 1 16 1 25 1 16 1 
25 1 11 8 12 8 12 8 4 1 16 1 25 1 16 1 
23 8 24 8 23 8 16 1 23 8 24 8 23 8 16 1 21 8 23 8 21 8 19 1 
7 1 16 1 25 1 16 1 25 1 16 1 25 1 21 1 21 1 9 1 
14 1 25 1 9 1 25 1 2 1 2 1 4 1 5 1